NAME : amz2102.65298_63798.tour
COMMENT : Cost = 65298_63798
COMMENT : Found by LKH-AMZ [Keld Helsgaun] Sun May 11 15:07:08 2025
COMMENT : TW viol.: 0 #: 0
TYPE : TOUR
DIMENSION : 90
TOUR_SECTION
74
46
88
30
38
40
13
28
87
34
9
27
25
49
48
64
75
69
39
81
41
85
3
2
79
18
60
21
50
19
52
82
76
26
80
23
54
14
66
45
78
31
56
55
20
24
15
89
29
67
47
16
57
5
37
65
51
58
4
68
84
72
6
7
90
10
62
36
86
59
83
73
44
8
43
70
11
71
77
22
1
33
61
53
35
12
42
17
32
63
-1
EOF
